(set-info :source  loris-7.ddns.comp.nus.edu.sg/~project/hip/) 
;Variables declarations
(declare-fun Anon_3759 () Int)
(declare-fun q_3756 () Int)
(declare-fun n_3750 () Int)
(declare-fun tm () Int)
(declare-fun m2_3757 () Int)
(declare-fun tn () Int)
(declare-fun b () Int)
(declare-fun n2_3758 () Int)
(declare-fun n1_3754 () Int)
(declare-fun m1_3753 () Int)
(declare-fun tm_3772 () Int)
(declare-fun tn_3773 () Int)
(declare-fun v_node_89_2075_primed () Int)
(declare-fun resb_3798 () Int)
(declare-fun flted_74_3796 () Int)
(declare-fun resn_3797 () Int)
(declare-fun v_node_87_3808 () Int)
;Relations declarations
;Axioms assertions
;Antecedent
(assert (or (and (and (and (< q_3756 1) (= m2_3757 0)) (= n2_3758 0)) (= Anon_3759 1)) (and (and (and (and (and (<= 0 Anon_3759) (<= (+ (- 0 n2_3758) 2) Anon_3759)) (<= Anon_3759 n2_3758)) (<= Anon_3759 2)) (<= 1 m2_3757)) (> q_3756 0))))
(assert (= n_3750 tn))
(assert (= tm (+ (+ m2_3757 1) m1_3753)))
(assert (exists ((max_3817 Int)) (and (= tn (+ max_3817 1)) (or (and (= max_3817 n1_3754) (>= n1_3754 n2_3758)) (and (= max_3817 n2_3758) (< n1_3754 n2_3758))))))
(assert (<= (+ 0 n2_3758) (+ n1_3754 1)))
(assert (<= n1_3754 (+ 1 n2_3758)))
(assert (= (+ b n2_3758) (+ 1 n1_3754)))
(assert (<= 0 tn_3773))
(assert (<= 0 tm_3772))
(assert (< 0 tn_3773))
(assert (< 0 tm_3772))
(assert (<= 0 n1_3754))
(assert (<= 0 m1_3753))
(assert (= tn_3773 n1_3754))
(assert (= tm_3772 m1_3753))
(assert (= flted_74_3796 (+ 1 tm_3772)))
(assert (or (= tn_3773 resn_3797) (and (= resn_3797 (+ 1 tn_3773)) (not (= resb_3798 1)))))
(assert (= v_node_89_2075_primed v_node_87_3808))
(assert (or (and (and (and (< v_node_87_3808 1) (= flted_74_3796 0)) (= resn_3797 0)) (= resb_3798 1)) (and (and (and (and (and (<= 0 resb_3798) (<= (+ (- 0 resn_3797) 2) resb_3798)) (<= resb_3798 resn_3797)) (<= resb_3798 2)) (<= 1 flted_74_3796)) (> v_node_87_3808 0))))
;Negation of Consequence
(assert (not (or (= flted_74_3796 0) (or (= resn_3797 0) (< v_node_87_3808 1)))))
(check-sat)